750
[150,151,152,154,156,161,162,164,166,169,170,171,172,177,180,181,182,184,186,187,190,192,195,197,198,199,200,204,205,207,210,211,212,215,216,217,220,221,223,224,226,228,230,231,232,236,237,238,242,243,244,246,247,248,249,250,251,252,255,256,261,262,263,264,265,267,270,274,275,276,279,281,285,286,288,290,291,292,293,299,300,301,302,303,304,305,306,307,308,310,311,316,318,319,320,323,326,327,330,331,332,333,335,338,342,343,346,347,348,349,350,352,353,354,358,359,360,361,362,364,368,369,370,371,373,376,377,378,379,381,382,385,386,387,390,391,393,394,396,397,398,400,401,402,404,405,409,410,413,414,420,421,422,423,424,426,429,430,431,432,435,436,437,438,439,440,442,443,444,445,446,447,449,451,452,454,455,458,459,460,461,462,463,464,465,466,468,469,470,471,472,476,477,478,479,483,485,487,488,490,491,493,494,496,497,498,499,500,503,506,509,510,513,515,516,517,520,521,523,524]
[1,1,3,2,1,1,1,1,1,1,2,2,1,1,1,1,1,2,1,2,1,1,3,1,1,4,1,1,1,1,1,1,1,1,1,1,2,1,1,2,1,1,2,2,2,2,1,2,1,2,1,1,1,1,1,1,1,1,1,1,1,1,1,1,1,1,1,1,1,1,1,2,1,1,3,1,1,2,3,1,1,2,1,1,1,1,1,2,4,2,1,1,1,2,1,4,1,1,1,1,2,1,1,1,1,1,1,1,1,3,1,1,2,2,2,1,1,1,1,1,1,1,1,1,1,1,1,1,3,2,1,1,1,1,1,1,1,1,1,1,1,1,1,2,1,1,1,2,1,1,2,1,2,1,1,1,1,1,1,3,3,1,1,1,1,1,1,2,1,1,4,2,2,2,1,2,1,1,1,3,2,2,1,2,2,2,1,1,1,2,1,1,2,1,2,1,1,2,1,1,1,2,2,1,2,2,1,1,1,1,1,2,1,2,1,1,1,2,2,1]
